c cksystemsgroup.github.io/unicorn
c CNF contains a total of 212 clauses.
c CNF contains a total of 107 variables.
c CNF clauses cover 1 bad states.
c Variable name mapping (34 names):
c   1: input[bit=0]
c   2: input[bit=0]
c   4: input[bit=0]
c   8: input[bit=1]
c   10: input[bit=1]
c   14: input[bit=2]
c   16: input[bit=2]
c   20: input[bit=3]
c   22: input[bit=3]
c   27: input[bit=4]
c   29: input[bit=4]
c   33: input[bit=5]
c   35: input[bit=5]
c   39: input[bit=6]
c   41: input[bit=6]
c   45: input[bit=7]
c   47: input[bit=7]
c   52: input[bit=8]
c   54: input[bit=8]
c   59: input[bit=9]
c   61: input[bit=9]
c   66: input[bit=10]
c   68: input[bit=10]
c   73: input[bit=11]
c   75: input[bit=11]
c   80: input[bit=12]
c   82: input[bit=12]
c   87: input[bit=13]
c   89: input[bit=13]
c   94: input[bit=14]
c   96: input[bit=14]
c   101: input[bit=15]
c   103: input[bit=15]
c   107: ?
p cnf 107 212
-1 -2 3 0
1 -3 0
2 -3 0
2 -4 5 0
-2 -5 0
4 -5 0
3 5 -6 0
-3 6 0
-5 6 0
-6 -7 0
6 7 0
-8 -2 9 0
8 -9 0
2 -9 0
2 -10 11 0
-2 -11 0
10 -11 0
9 11 -12 0
-9 12 0
-11 12 0
-7 -12 13 0
7 -13 0
12 -13 0
-14 -2 15 0
14 -15 0
2 -15 0
2 -16 17 0
-2 -17 0
16 -17 0
15 17 -18 0
-15 18 0
-17 18 0
-13 -18 19 0
13 -19 0
18 -19 0
-20 -2 21 0
20 -21 0
2 -21 0
2 -22 23 0
-2 -23 0
22 -23 0
21 23 -24 0
-21 24 0
-23 24 0
-24 -25 0
24 25 0
-19 -25 26 0
19 -26 0
25 -26 0
-27 -2 28 0
27 -28 0
2 -28 0
2 -29 30 0
-2 -30 0
29 -30 0
28 30 -31 0
-28 31 0
-30 31 0
-26 -31 32 0
26 -32 0
31 -32 0
-33 -2 34 0
33 -34 0
2 -34 0
2 -35 36 0
-2 -36 0
35 -36 0
34 36 -37 0
-34 37 0
-36 37 0
-32 -37 38 0
32 -38 0
37 -38 0
-39 -2 40 0
39 -40 0
2 -40 0
2 -41 42 0
-2 -42 0
41 -42 0
40 42 -43 0
-40 43 0
-42 43 0
-38 -43 44 0
38 -44 0
43 -44 0
-45 -2 46 0
45 -46 0
2 -46 0
2 -47 48 0
-2 -48 0
47 -48 0
46 48 -49 0
-46 49 0
-48 49 0
-49 -50 0
49 50 0
-44 -50 51 0
44 -51 0
50 -51 0
-52 -2 53 0
52 -53 0
2 -53 0
2 -54 55 0
-2 -55 0
54 -55 0
53 55 -56 0
-53 56 0
-55 56 0
-56 -57 0
56 57 0
-51 -57 58 0
51 -58 0
57 -58 0
-59 -2 60 0
59 -60 0
2 -60 0
2 -61 62 0
-2 -62 0
61 -62 0
60 62 -63 0
-60 63 0
-62 63 0
-63 -64 0
63 64 0
-58 -64 65 0
58 -65 0
64 -65 0
-66 -2 67 0
66 -67 0
2 -67 0
2 -68 69 0
-2 -69 0
68 -69 0
67 69 -70 0
-67 70 0
-69 70 0
-70 -71 0
70 71 0
-65 -71 72 0
65 -72 0
71 -72 0
-73 -2 74 0
73 -74 0
2 -74 0
2 -75 76 0
-2 -76 0
75 -76 0
74 76 -77 0
-74 77 0
-76 77 0
-77 -78 0
77 78 0
-72 -78 79 0
72 -79 0
78 -79 0
-80 -2 81 0
80 -81 0
2 -81 0
2 -82 83 0
-2 -83 0
82 -83 0
81 83 -84 0
-81 84 0
-83 84 0
-84 -85 0
84 85 0
-79 -85 86 0
79 -86 0
85 -86 0
-87 -2 88 0
87 -88 0
2 -88 0
2 -89 90 0
-2 -90 0
89 -90 0
88 90 -91 0
-88 91 0
-90 91 0
-91 -92 0
91 92 0
-86 -92 93 0
86 -93 0
92 -93 0
-94 -2 95 0
94 -95 0
2 -95 0
2 -96 97 0
-2 -97 0
96 -97 0
95 97 -98 0
-95 98 0
-97 98 0
-98 -99 0
98 99 0
-93 -99 100 0
93 -100 0
99 -100 0
-101 -2 102 0
101 -102 0
2 -102 0
2 -103 104 0
-2 -104 0
103 -104 0
102 104 -105 0
-102 105 0
-104 105 0
-105 -106 0
105 106 0
-100 -106 107 0
100 -107 0
106 -107 0
107 0
